(declare-var |_11_0| Int)
(declare-var |_11_1| Int)
(declare-var |_a_6_0| (Array Int Int))
(declare-var |_elem_8_0| Int)
(declare-var |_n_3_0| Int)
(declare-var |bIndex_20_0| Int)
(declare-var |bIndex_20_1| Int)
(declare-var |balances_0| (Array Int Int))
(declare-var |error_abstract_1| Int)
(declare-var |expr_101_1| Int)
(declare-var |expr_108_0| Int)
(declare-var |expr_109_0| Int)
(declare-var |expr_110_1| Bool)
(declare-var |expr_113_0| Int)
(declare-var |expr_14_0| Int)
(declare-var |expr_15_0| Int)
(declare-var |expr_16_1| Bool)
(declare-var |expr_21_0| Int)
(declare-var |expr_25_0| Int)
(declare-var |expr_29_0| Int)
(declare-var |expr_31_0| Int)
(declare-var |expr_32_0| Int)
(declare-var |expr_33_1| Bool)
(declare-var |expr_36_0| Int)
(declare-var |expr_37_0| Int)
(declare-var |expr_38_1| Int)
(declare-var |expr_39_1| Int)
(declare-var |expr_40_0| Int)
(declare-var |expr_41_1| Int)
(declare-var |expr_43_0| (Array Int Int))
(declare-var |expr_44_0| Int)
(declare-var |expr_45_1| Int)
(declare-var |expr_46_0| Int)
(declare-var |expr_47_1| Bool)
(declare-var |expr_49_0| Int)
(declare-var |expr_50_1| Int)
(declare-var |expr_53_0| Int)
(declare-var |expr_54_1| Int)
(declare-var |expr_57_0| (Array Int Int))
(declare-var |expr_58_0| Int)
(declare-var |expr_59_1| Int)
(declare-var |expr_60_0| Int)
(declare-var |expr_61_1| Bool)
(declare-var |expr_63_0| Int)
(declare-var |expr_64_1| Int)
(declare-var |expr_68_0| Int)
(declare-var |expr_69_1| Int)
(declare-var |expr_78_0| Int)
(declare-var |expr_82_0| Bool)
(declare-var |expr_84_0| Bool)
(declare-var |expr_85_1| Bool)
(declare-var |expr_86_0| Int)
(declare-var |expr_87_0| Int)
(declare-var |expr_88_1| Bool)
(declare-var |expr_89_0| Bool)
(declare-var |expr_90_0| (Array Int Int))
(declare-var |expr_91_0| Int)
(declare-var |expr_92_1| Int)
(declare-var |expr_93_0| Int)
(declare-var |expr_94_1| Bool)
(declare-var |expr_96_0| Bool)
(declare-var |expr_97_1| Bool)
(declare-var |found_81_0| Bool)
(declare-var |found_81_1| Bool)
(declare-var |lIndex_77_0| Int)
(declare-var |lIndex_77_1| Int)
(declare-var |left_24_0| Int)
(declare-var |left_24_1| Int)
(declare-var |m_35_0| Int)
(declare-var |m_35_1| Int)
(declare-var |right_28_0| Int)
(declare-var |right_28_1| Int)
(declare-var |this_0| Int)
(declare-rel |interface_C_117_0| ())
(declare-rel |error_0| ())
(declare-rel |constructor_C_117_0| ())
(rule (! constructor_C_117_0 :named constructor_C_117))
(rule (! (implies (and (and constructor_C_117_0 true) true) interface_C_117_0) :named constructor_C_117_0_to_interface_C_117_0))
(declare-rel |block_0_function_bsearch_116_0| (Int (Array Int Int) Int Int ))
(declare-rel |block_1_115_0| (Int (Array Int Int) Int Int Int Int Int Int Int Bool ))
(rule (! (implies (and (and interface_C_117_0 true) true) (block_0_function_bsearch_116_0 _n_3_0 _a_6_0 _elem_8_0 _11_0)) :named interface_C_117_0_to_block_0_function_bsearch_116_0))
(rule (! (implies (and (and (block_0_function_bsearch_116_0 _n_3_0 _a_6_0 _elem_8_0 _11_0) true) true) (block_1_115_0 _n_3_0 _a_6_0 _elem_8_0 _11_0 bIndex_20_0 left_24_0 right_28_0 m_35_0 lIndex_77_0 found_81_0)) :named block_0_function_bsearch_116_0_to_block_1_115_0))
(declare-rel |block_2_while_header_75_0| (Int (Array Int Int) Int Int Int Int Int Int Int Bool ))
(declare-rel |block_3_while_body_74_0| (Int (Array Int Int) Int Int Int Int Int Int Int Bool ))
(declare-rel |block_4_115_0| (Int (Array Int Int) Int Int Int Int Int Int Int Bool ))
(rule (! (implies (and (and (block_1_115_0 _n_3_0 _a_6_0 _elem_8_0 _11_0 bIndex_20_0 left_24_0 right_28_0 m_35_0 lIndex_77_0 found_81_0) (and (= right_28_1 expr_29_0) (and (= expr_29_0 _n_3_0) (and (= left_24_1 expr_25_0) (and (= expr_25_0 0) (and (= bIndex_20_1 expr_21_0) (and (= expr_21_0 _n_3_0) (and (implies true expr_16_1) (and (= expr_16_1 (> expr_14_0 expr_15_0)) (and (= expr_15_0 0) (and (= expr_14_0 _n_3_0) (and (and (= _11_0 0) (and (<= _elem_8_0 115792089237316195423570985008687907853269984665640564039457584007913129639935) (and (>= _elem_8_0 0) (and (<= _n_3_0 115792089237316195423570985008687907853269984665640564039457584007913129639935) (and (>= _n_3_0 0) (and (= found_81_0 false) (and (= lIndex_77_0 0) (and (= m_35_0 0) (and (= right_28_0 0) (and (= left_24_0 0) (and (= bIndex_20_0 0) true))))))))))) true)))))))))))) true) (block_2_while_header_75_0 _n_3_0 _a_6_0 _elem_8_0 _11_0 bIndex_20_1 left_24_1 right_28_1 m_35_0 lIndex_77_0 found_81_0)) :named block_1_115_0_to_block_2_while_header_75_0))
(rule (! (implies (and (and (block_2_while_header_75_0 _n_3_0 _a_6_0 _elem_8_0 _11_0 bIndex_20_0 left_24_0 right_28_0 m_35_0 lIndex_77_0 found_81_0) (and (= expr_33_1 (< expr_31_0 expr_32_0)) (and (= expr_32_0 right_28_0) (and (= expr_31_0 left_24_0) true)))) expr_33_1) (block_3_while_body_74_0 _n_3_0 _a_6_0 _elem_8_0 _11_0 bIndex_20_0 left_24_0 right_28_0 m_35_0 lIndex_77_0 found_81_0)) :named block_2_while_header_75_0_to_block_3_while_body_74_0))
(rule (! (implies (and (and (block_2_while_header_75_0 _n_3_0 _a_6_0 _elem_8_0 _11_0 bIndex_20_0 left_24_0 right_28_0 m_35_0 lIndex_77_0 found_81_0) (and (= expr_33_1 (< expr_31_0 expr_32_0)) (and (= expr_32_0 right_28_0) (and (= expr_31_0 left_24_0) true)))) (not expr_33_1)) (block_4_115_0 _n_3_0 _a_6_0 _elem_8_0 _11_0 bIndex_20_0 left_24_0 right_28_0 m_35_0 lIndex_77_0 found_81_0)) :named block_2_while_header_75_0_to_block_4_115_0))
(declare-rel |block_5_if_header_73_0| (Int (Array Int Int) Int Int Int Int Int Int Int Bool ))
(declare-rel |block_6_if_true_56_0| (Int (Array Int Int) Int Int Int Int Int Int Int Bool ))
(declare-rel |block_7_if_false_72_0| (Int (Array Int Int) Int Int Int Int Int Int Int Bool ))
(declare-rel |block_8_115_0| (Int (Array Int Int) Int Int Int Int Int Int Int Bool ))
(rule (! (implies (and (and (block_3_while_body_74_0 _n_3_0 _a_6_0 _elem_8_0 _11_0 bIndex_20_0 left_24_0 right_28_0 m_35_0 lIndex_77_0 found_81_0) (and (= m_35_1 expr_41_1) (and (= expr_41_1 (ite (> (/ expr_39_1 expr_40_0) 115792089237316195423570985008687907853269984665640564039457584007913129639935) (mod (/ expr_39_1 expr_40_0) (+ (+ (- 0 0) 115792089237316195423570985008687907853269984665640564039457584007913129639935) 1)) (ite (< (/ expr_39_1 expr_40_0) 0) (mod (/ expr_39_1 expr_40_0) (+ (+ (- 0 0) 115792089237316195423570985008687907853269984665640564039457584007913129639935) 1)) (/ expr_39_1 expr_40_0)))) (and (not (= expr_40_0 0)) (and (= expr_40_0 2) (and (= expr_39_1 expr_38_1) (and (= expr_38_1 (ite (> (+ expr_36_0 expr_37_0) 115792089237316195423570985008687907853269984665640564039457584007913129639935) (mod (+ expr_36_0 expr_37_0) (+ (+ (- 0 0) 115792089237316195423570985008687907853269984665640564039457584007913129639935) 1)) (ite (< (+ expr_36_0 expr_37_0) 0) (mod (+ expr_36_0 expr_37_0) (+ (+ (- 0 0) 115792089237316195423570985008687907853269984665640564039457584007913129639935) 1)) (+ expr_36_0 expr_37_0)))) (and (= expr_37_0 right_28_0) (and (= expr_36_0 left_24_0) true))))))))) true) (block_5_if_header_73_0 _n_3_0 _a_6_0 _elem_8_0 _11_0 bIndex_20_0 left_24_0 right_28_0 m_35_1 lIndex_77_0 found_81_0)) :named block_3_while_body_74_0_to_block_5_if_header_73_0))
(rule (! (implies (and (and (block_5_if_header_73_0 _n_3_0 _a_6_0 _elem_8_0 _11_0 bIndex_20_0 left_24_0 right_28_0 m_35_0 lIndex_77_0 found_81_0) (and (= expr_47_1 (= expr_45_1 expr_46_0)) (and (= expr_46_0 _elem_8_0) (and (<= expr_45_1 115792089237316195423570985008687907853269984665640564039457584007913129639935) (and (>= expr_45_1 0) (and (= expr_45_1 (select _a_6_0 expr_44_0)) (and (= expr_44_0 m_35_0) (and (= expr_43_0 _a_6_0) true)))))))) expr_47_1) (block_6_if_true_56_0 _n_3_0 _a_6_0 _elem_8_0 _11_0 bIndex_20_0 left_24_0 right_28_0 m_35_0 lIndex_77_0 found_81_0)) :named block_5_if_header_73_0_to_block_6_if_true_56_0))
(rule (! (implies (and (and (block_5_if_header_73_0 _n_3_0 _a_6_0 _elem_8_0 _11_0 bIndex_20_0 left_24_0 right_28_0 m_35_0 lIndex_77_0 found_81_0) (and (= expr_47_1 (= expr_45_1 expr_46_0)) (and (= expr_46_0 _elem_8_0) (and (<= expr_45_1 115792089237316195423570985008687907853269984665640564039457584007913129639935) (and (>= expr_45_1 0) (and (= expr_45_1 (select _a_6_0 expr_44_0)) (and (= expr_44_0 m_35_0) (and (= expr_43_0 _a_6_0) true)))))))) (not expr_47_1)) (block_7_if_false_72_0 _n_3_0 _a_6_0 _elem_8_0 _11_0 bIndex_20_0 left_24_0 right_28_0 m_35_0 lIndex_77_0 found_81_0)) :named block_5_if_header_73_0_to_block_7_if_false_72_0))
(rule (! (implies (and (and (block_6_if_true_56_0 _n_3_0 _a_6_0 _elem_8_0 _11_0 bIndex_20_0 left_24_0 right_28_0 m_35_0 lIndex_77_0 found_81_0) (and (= left_24_1 expr_54_1) (and (= expr_54_1 expr_53_0) (and (= expr_53_0 right_28_0) (and (= bIndex_20_1 expr_50_1) (and (= expr_50_1 expr_49_0) (and (= expr_49_0 m_35_0) true))))))) true) (block_8_115_0 _n_3_0 _a_6_0 _elem_8_0 _11_0 bIndex_20_1 left_24_1 right_28_0 m_35_0 lIndex_77_0 found_81_0)) :named block_6_if_true_56_0_to_block_8_115_0))
(declare-rel |block_9_if_header_72_0| (Int (Array Int Int) Int Int Int Int Int Int Int Bool ))
(declare-rel |block_10_if_true_66_0| (Int (Array Int Int) Int Int Int Int Int Int Int Bool ))
(declare-rel |block_11_if_false_71_0| (Int (Array Int Int) Int Int Int Int Int Int Int Bool ))
(declare-rel |block_12_115_0| (Int (Array Int Int) Int Int Int Int Int Int Int Bool ))
(rule (! (implies (and (and (block_7_if_false_72_0 _n_3_0 _a_6_0 _elem_8_0 _11_0 bIndex_20_0 left_24_0 right_28_0 m_35_0 lIndex_77_0 found_81_0) true) true) (block_9_if_header_72_0 _n_3_0 _a_6_0 _elem_8_0 _11_0 bIndex_20_0 left_24_0 right_28_0 m_35_0 lIndex_77_0 found_81_0)) :named block_7_if_false_72_0_to_block_9_if_header_72_0))
(rule (! (implies (and (and (block_9_if_header_72_0 _n_3_0 _a_6_0 _elem_8_0 _11_0 bIndex_20_0 left_24_0 right_28_0 m_35_0 lIndex_77_0 found_81_0) (and (= expr_61_1 (> expr_59_1 expr_60_0)) (and (= expr_60_0 _elem_8_0) (and (<= expr_59_1 115792089237316195423570985008687907853269984665640564039457584007913129639935) (and (>= expr_59_1 0) (and (= expr_59_1 (select _a_6_0 expr_58_0)) (and (= expr_58_0 m_35_0) (and (= expr_57_0 _a_6_0) true)))))))) expr_61_1) (block_10_if_true_66_0 _n_3_0 _a_6_0 _elem_8_0 _11_0 bIndex_20_0 left_24_0 right_28_0 m_35_0 lIndex_77_0 found_81_0)) :named block_9_if_header_72_0_to_block_10_if_true_66_0))
(rule (! (implies (and (and (block_9_if_header_72_0 _n_3_0 _a_6_0 _elem_8_0 _11_0 bIndex_20_0 left_24_0 right_28_0 m_35_0 lIndex_77_0 found_81_0) (and (= expr_61_1 (> expr_59_1 expr_60_0)) (and (= expr_60_0 _elem_8_0) (and (<= expr_59_1 115792089237316195423570985008687907853269984665640564039457584007913129639935) (and (>= expr_59_1 0) (and (= expr_59_1 (select _a_6_0 expr_58_0)) (and (= expr_58_0 m_35_0) (and (= expr_57_0 _a_6_0) true)))))))) (not expr_61_1)) (block_11_if_false_71_0 _n_3_0 _a_6_0 _elem_8_0 _11_0 bIndex_20_0 left_24_0 right_28_0 m_35_0 lIndex_77_0 found_81_0)) :named block_9_if_header_72_0_to_block_11_if_false_71_0))
(rule (! (implies (and (and (block_10_if_true_66_0 _n_3_0 _a_6_0 _elem_8_0 _11_0 bIndex_20_0 left_24_0 right_28_0 m_35_0 lIndex_77_0 found_81_0) (and (= right_28_1 expr_64_1) (and (= expr_64_1 expr_63_0) (and (= expr_63_0 m_35_0) true)))) true) (block_12_115_0 _n_3_0 _a_6_0 _elem_8_0 _11_0 bIndex_20_0 left_24_0 right_28_1 m_35_0 lIndex_77_0 found_81_0)) :named block_10_if_true_66_0_to_block_12_115_0))
(rule (! (implies (and (and (block_11_if_false_71_0 _n_3_0 _a_6_0 _elem_8_0 _11_0 bIndex_20_0 left_24_0 right_28_0 m_35_0 lIndex_77_0 found_81_0) (and (= left_24_1 expr_69_1) (and (= expr_69_1 expr_68_0) (and (= expr_68_0 m_35_0) true)))) true) (block_12_115_0 _n_3_0 _a_6_0 _elem_8_0 _11_0 bIndex_20_0 left_24_1 right_28_0 m_35_0 lIndex_77_0 found_81_0)) :named block_11_if_false_71_0_to_block_12_115_0))
(rule (! (implies (and (and (block_12_115_0 _n_3_0 _a_6_0 _elem_8_0 _11_0 bIndex_20_0 left_24_0 right_28_0 m_35_0 lIndex_77_0 found_81_0) true) true) (block_8_115_0 _n_3_0 _a_6_0 _elem_8_0 _11_0 bIndex_20_0 left_24_0 right_28_0 m_35_0 lIndex_77_0 found_81_0)) :named block_12_115_0_to_block_8_115_0))
(rule (! (implies (and (and (block_8_115_0 _n_3_0 _a_6_0 _elem_8_0 _11_0 bIndex_20_0 left_24_0 right_28_0 m_35_0 lIndex_77_0 found_81_0) true) true) (block_2_while_header_75_0 _n_3_0 _a_6_0 _elem_8_0 _11_0 bIndex_20_0 left_24_0 right_28_0 m_35_0 lIndex_77_0 found_81_0)) :named block_8_115_0_to_block_2_while_header_75_0))
(declare-rel |block_13_while_header_106_0| (Int (Array Int Int) Int Int Int Int Int Int Int Bool ))
(declare-rel |block_14_while_body_105_0| (Int (Array Int Int) Int Int Int Int Int Int Int Bool ))
(declare-rel |block_15_115_0| (Int (Array Int Int) Int Int Int Int Int Int Int Bool ))
(rule (! (implies (and (and (block_4_115_0 _n_3_0 _a_6_0 _elem_8_0 _11_0 bIndex_20_0 left_24_0 right_28_0 m_35_0 lIndex_77_0 found_81_0) (and (= found_81_1 expr_82_0) (and (= expr_82_0 false) (and (= lIndex_77_1 expr_78_0) (and (= expr_78_0 0) true))))) true) (block_13_while_header_106_0 _n_3_0 _a_6_0 _elem_8_0 _11_0 bIndex_20_0 left_24_0 right_28_0 m_35_0 lIndex_77_1 found_81_1)) :named block_4_115_0_to_block_13_while_header_106_0))
(rule (! (implies (and (and (block_13_while_header_106_0 _n_3_0 _a_6_0 _elem_8_0 _11_0 bIndex_20_0 left_24_0 right_28_0 m_35_0 lIndex_77_0 found_81_0) (and (= expr_89_0 (and expr_85_1 expr_88_1)) (and (= expr_88_1 (< expr_86_0 expr_87_0)) (and (= expr_87_0 _n_3_0) (and (= expr_86_0 lIndex_77_0) (and (= expr_85_1 (not expr_84_0)) (and (= expr_84_0 found_81_0) true))))))) expr_89_0) (block_14_while_body_105_0 _n_3_0 _a_6_0 _elem_8_0 _11_0 bIndex_20_0 left_24_0 right_28_0 m_35_0 lIndex_77_0 found_81_0)) :named block_13_while_header_106_0_to_block_14_while_body_105_0))
(rule (! (implies (and (and (block_13_while_header_106_0 _n_3_0 _a_6_0 _elem_8_0 _11_0 bIndex_20_0 left_24_0 right_28_0 m_35_0 lIndex_77_0 found_81_0) (and (= expr_89_0 (and expr_85_1 expr_88_1)) (and (= expr_88_1 (< expr_86_0 expr_87_0)) (and (= expr_87_0 _n_3_0) (and (= expr_86_0 lIndex_77_0) (and (= expr_85_1 (not expr_84_0)) (and (= expr_84_0 found_81_0) true))))))) (not expr_89_0)) (block_15_115_0 _n_3_0 _a_6_0 _elem_8_0 _11_0 bIndex_20_0 left_24_0 right_28_0 m_35_0 lIndex_77_0 found_81_0)) :named block_13_while_header_106_0_to_block_15_115_0))
(declare-rel |block_16_if_header_104_0| (Int (Array Int Int) Int Int Int Int Int Int Int Bool ))
(declare-rel |block_17_if_true_99_0| (Int (Array Int Int) Int Int Int Int Int Int Int Bool ))
(declare-rel |block_18_if_false_103_0| (Int (Array Int Int) Int Int Int Int Int Int Int Bool ))
(declare-rel |block_19_115_0| (Int (Array Int Int) Int Int Int Int Int Int Int Bool ))
(rule (! (implies (and (and (block_14_while_body_105_0 _n_3_0 _a_6_0 _elem_8_0 _11_0 bIndex_20_0 left_24_0 right_28_0 m_35_0 lIndex_77_0 found_81_0) true) true) (block_16_if_header_104_0 _n_3_0 _a_6_0 _elem_8_0 _11_0 bIndex_20_0 left_24_0 right_28_0 m_35_0 lIndex_77_0 found_81_0)) :named block_14_while_body_105_0_to_block_16_if_header_104_0))
(rule (! (implies (and (and (block_16_if_header_104_0 _n_3_0 _a_6_0 _elem_8_0 _11_0 bIndex_20_0 left_24_0 right_28_0 m_35_0 lIndex_77_0 found_81_0) (and (= expr_94_1 (= expr_92_1 expr_93_0)) (and (= expr_93_0 _elem_8_0) (and (<= expr_92_1 115792089237316195423570985008687907853269984665640564039457584007913129639935) (and (>= expr_92_1 0) (and (= expr_92_1 (select _a_6_0 expr_91_0)) (and (= expr_91_0 lIndex_77_0) (and (= expr_90_0 _a_6_0) true)))))))) expr_94_1) (block_17_if_true_99_0 _n_3_0 _a_6_0 _elem_8_0 _11_0 bIndex_20_0 left_24_0 right_28_0 m_35_0 lIndex_77_0 found_81_0)) :named block_16_if_header_104_0_to_block_17_if_true_99_0))
(rule (! (implies (and (and (block_16_if_header_104_0 _n_3_0 _a_6_0 _elem_8_0 _11_0 bIndex_20_0 left_24_0 right_28_0 m_35_0 lIndex_77_0 found_81_0) (and (= expr_94_1 (= expr_92_1 expr_93_0)) (and (= expr_93_0 _elem_8_0) (and (<= expr_92_1 115792089237316195423570985008687907853269984665640564039457584007913129639935) (and (>= expr_92_1 0) (and (= expr_92_1 (select _a_6_0 expr_91_0)) (and (= expr_91_0 lIndex_77_0) (and (= expr_90_0 _a_6_0) true)))))))) (not expr_94_1)) (block_18_if_false_103_0 _n_3_0 _a_6_0 _elem_8_0 _11_0 bIndex_20_0 left_24_0 right_28_0 m_35_0 lIndex_77_0 found_81_0)) :named block_16_if_header_104_0_to_block_18_if_false_103_0))
(rule (! (implies (and (and (block_17_if_true_99_0 _n_3_0 _a_6_0 _elem_8_0 _11_0 bIndex_20_0 left_24_0 right_28_0 m_35_0 lIndex_77_0 found_81_0) (and (= found_81_1 expr_97_1) (and (= expr_97_1 expr_96_0) (and (= expr_96_0 true) true)))) true) (block_19_115_0 _n_3_0 _a_6_0 _elem_8_0 _11_0 bIndex_20_0 left_24_0 right_28_0 m_35_0 lIndex_77_0 found_81_1)) :named block_17_if_true_99_0_to_block_19_115_0))
(rule (! (implies (and (and (block_18_if_false_103_0 _n_3_0 _a_6_0 _elem_8_0 _11_0 bIndex_20_0 left_24_0 right_28_0 m_35_0 lIndex_77_0 found_81_0) (and (= lIndex_77_1 (+ lIndex_77_0 1)) (and (= expr_101_1 (+ lIndex_77_0 1)) true))) true) (block_19_115_0 _n_3_0 _a_6_0 _elem_8_0 _11_0 bIndex_20_0 left_24_0 right_28_0 m_35_0 lIndex_77_1 found_81_0)) :named block_18_if_false_103_0_to_block_19_115_0))
(rule (! (implies (and (and (block_19_115_0 _n_3_0 _a_6_0 _elem_8_0 _11_0 bIndex_20_0 left_24_0 right_28_0 m_35_0 lIndex_77_0 found_81_0) true) true) (block_13_while_header_106_0 _n_3_0 _a_6_0 _elem_8_0 _11_0 bIndex_20_0 left_24_0 right_28_0 m_35_0 lIndex_77_0 found_81_0)) :named block_19_115_0_to_block_13_while_header_106_0))
(declare-rel |error_1| ())
(rule (! (implies (and (and (block_15_115_0 _n_3_0 _a_6_0 _elem_8_0 _11_0 bIndex_20_0 left_24_0 right_28_0 m_35_0 lIndex_77_0 found_81_0) (and (= expr_110_1 (= expr_108_0 expr_109_0)) (and (= expr_109_0 bIndex_20_0) (and (= expr_108_0 lIndex_77_0) true)))) (and true (not expr_110_1))) error_1) :named block_15_115_0_to_error_1))
(rule (! (implies (and (and (block_15_115_0 _n_3_0 _a_6_0 _elem_8_0 _11_0 bIndex_20_0 left_24_0 right_28_0 m_35_0 lIndex_77_0 found_81_0) (and (= expr_113_0 _11_1) (and (= expr_113_0 bIndex_20_0) (and (implies true expr_110_1) (and (= expr_110_1 (= expr_108_0 expr_109_0)) (and (= expr_109_0 bIndex_20_0) (and (= expr_108_0 lIndex_77_0) true))))))) true) interface_C_117_0) :named block_15_115_0_to_interface_C_117_0))

(query error_1 :print-certificate true)
